projected/problems_b25_r0_d7_m100_s666/_DIMACS/b25_d7_r0_s666_089.cnf
p cnf 263 445 25
c p show 1 2 3 4 5 6 7 8 9 10 11 12 13 14 15 16 17 18 19 20 21 22 23 24 25
-26 22 -8 0
-27 -9 11 0
-28 27 26 0
-29 9 0
-29 -11 0
-30 -22 0
-30 8 0
-31 30 29 0
-32 31 0
-32 28 0
-33 -8 0
-33 14 0
-34 3 12 0
-35 34 33 0
-36 35 0
-36 32 0
-37 -5 0
-37 -24 0
-38 24 0
-38 5 0
-39 38 37 0
-40 -22 0
-40 13 0
-41 40 0
-41 39 0
-42 19 0
-42 5 0
-43 -1 0
-43 -6 0
-44 43 0
-44 42 0
-45 44 0
-45 41 0
-46 45 0
-46 36 0
-47 12 4 0
-48 12 0
-48 -22 0
-49 48 0
-49 47 0
-50 -5 0
-50 3 0
-51 2 0
-51 -21 0
-52 51 50 0
-53 -2 21 0
-54 5 -3 0
-55 54 53 0
-56 55 0
-56 52 0
-57 56 0
-57 49 0
-58 17 0
-58 -12 0
-59 -20 -21 0
-60 59 0
-60 58 0
-61 -21 12 0
-62 4 8 0
-63 -8 -4 0
-64 63 0
-64 62 0
-65 64 0
-65 61 0
-66 65 60 0
-67 66 0
-67 57 0
-68 67 0
-68 46 0
-69 -12 0
-69 -4 0
-70 -12 22 0
-71 70 69 0
-72 53 0
-72 54 0
-73 50 0
-73 51 0
-74 73 72 0
-75 74 71 0
-76 -17 12 0
-77 20 0
-77 21 0
-78 77 76 0
-79 21 0
-79 -12 0
-80 -4 0
-80 -8 0
-81 8 0
-81 4 0
-82 81 80 0
-83 82 79 0
-84 83 0
-84 78 0
-85 84 75 0
-86 29 0
-86 30 0
-87 26 0
-87 27 0
-88 87 86 0
-89 8 -14 0
-90 -3 0
-90 -12 0
-91 90 0
-91 89 0
-92 91 88 0
-93 5 24 0
-94 -24 -5 0
-95 94 0
-95 93 0
-96 22 -13 0
-97 96 95 0
-98 -19 -5 0
-99 1 6 0
-100 99 98 0
-101 100 97 0
-102 101 92 0
-103 102 0
-103 85 0
-104 103 68 0
-105 -14 -15 0
-106 -20 -1 0
-107 1 20 0
-108 107 0
-108 106 0
-109 108 105 0
-110 4 0
-110 -14 0
-111 -10 0
-111 11 0
-112 111 0
-112 110 0
-113 112 0
-113 109 0
-114 20 0
-114 -20 0
-115 22 0
-115 -7 0
-116 7 0
-116 -22 0
-117 116 115 0
-118 117 114 0
-119 -11 0
-119 -24 0
-120 -14 0
-120 -22 0
-121 120 0
-121 119 0
-122 121 0
-122 118 0
-123 122 0
-123 113 0
-124 -20 20 0
-125 -22 7 0
-126 -7 22 0
-127 126 0
-127 125 0
-128 127 0
-128 124 0
-129 11 24 0
-130 14 22 0
-131 130 129 0
-132 131 128 0
-133 14 0
-133 15 0
-134 20 0
-134 1 0
-135 -1 0
-135 -20 0
-136 135 134 0
-137 136 0
-137 133 0
-138 -4 14 0
-139 10 -11 0
-140 139 138 0
-141 140 137 0
-142 141 0
-142 132 0
-143 142 123 0
-144 -13 23 0
-145 -23 13 0
-146 145 0
-146 144 0
-147 -18 0
-147 -8 0
-148 147 146 0
-149 -17 -23 0
-150 -22 1 0
-151 150 149 0
-152 151 0
-152 148 0
-153 17 0
-153 23 0
-154 22 0
-154 -1 0
-155 154 0
-155 153 0
-156 13 0
-156 -23 0
-157 23 0
-157 -13 0
-158 157 156 0
-159 18 8 0
-160 159 0
-160 158 0
-161 160 0
-161 155 0
-162 161 152 0
-163 -8 0
-163 -17 0
-164 17 0
-164 8 0
-165 164 163 0
-166 -10 24 0
-167 166 0
-167 165 0
-168 -19 0
-168 -21 0
-169 -12 13 0
-170 -13 12 0
-171 170 0
-171 169 0
-172 171 168 0
-173 172 167 0
-174 173 162 0
-175 174 143 0
-176 175 104 0
-177 6 20 0
-178 -21 0
-178 21 0
-179 178 177 0
-180 3 -9 0
-181 -16 0
-181 23 0
-182 181 0
-182 180 0
-183 182 0
-183 179 0
-184 -3 0
-184 9 0
-185 16 -23 0
-186 185 184 0
-187 -6 0
-187 -20 0
-188 21 -21 0
-189 188 0
-189 187 0
-190 189 0
-190 186 0
-191 190 183 0
-192 6 8 0
-193 -4 9 0
-194 193 192 0
-195 -14 0
-195 17 0
-196 -17 0
-196 14 0
-197 196 195 0
-198 -9 0
-198 -6 0
-199 198 197 0
-200 199 194 0
-201 200 191 0
-202 11 0
-203 24 9 0
-204 203 202 0
-205 -24 0
-205 -9 0
-206 -11 0
-207 206 205 0
-208 207 0
-208 204 0
-209 -10 2 0
-210 -16 3 0
-211 210 0
-211 209 0
-212 211 0
-212 208 0
-213 -8 0
-213 2 0
-214 22 0
-214 -19 0
-215 214 0
-215 213 0
-216 3 0
-217 25 0
-217 11 0
-218 217 0
-218 216 0
-219 218 215 0
-220 -3 0
-221 -25 -11 0
-222 221 220 0
-223 8 -2 0
-224 -22 19 0
-225 224 223 0
-226 225 222 0
-227 226 0
-227 219 0
-228 227 212 0
-229 228 201 0
-230 -7 0
-230 -1 0
-231 8 0
-231 -21 0
-232 231 230 0
-233 -14 0
-233 -13 0
-234 8 14 0
-235 234 0
-235 233 0
-236 235 0
-236 232 0
-237 21 -3 0
-238 -5 0
-238 -20 0
-239 238 0
-239 237 0
-240 12 0
-240 18 0
-241 -2 -11 0
-242 241 0
-242 240 0
-243 242 0
-243 239 0
-244 243 236 0
-245 -4 -12 0
-246 6 -21 0
-247 246 245 0
-248 5 -14 0
-249 -2 -7 0
-250 249 248 0
-251 250 247 0
-252 8 -12 0
-253 12 -8 0
-254 253 0
-254 252 0
-255 -8 0
-255 -22 0
-256 255 0
-256 254 0
-257 20 0
-257 10 0
-258 -19 0
-258 -20 0
-259 258 0
-259 257 0
-260 259 256 0
-261 260 251 0
-262 261 244 0
-263 262 229 0
263 0
176 0
-47 -69 0
-70 -48 0
-48 -70 0
-49 -71 0
-53 -51 0
-50 -54 0
-56 -74 0
-57 -75 0
-76 -58 0
-58 -76 0
-77 -59 0
-59 -77 0
-60 -78 0
-79 -61 0
-61 -79 0
-64 -82 0
-65 -83 0
-66 -84 0
-67 -85 0
-27 -29 0
-29 -27 0
-26 -30 0
-32 -88 0
-33 -89 0
-34 -90 0
-35 -91 0
-36 -92 0
-95 -39 0
-96 -40 0
-97 -41 0
-42 -98 0
-98 -42 0
-99 -43 0
-100 -44 0
-101 -45 0
-45 -101 0
-46 -102 0
-102 -46 0
-124 -114 0
-114 -124 0
-127 -117 0
-117 -127 0
-118 -128 0
-128 -118 0
-119 -129 0
-120 -130 0
-121 -131 0
-131 -121 0
-132 -122 0
-122 -132 0
-105 -133 0
-133 -105 0
-108 -136 0
-136 -108 0
-137 -109 0
-109 -137 0
-110 -138 0
-138 -110 0
-139 -111 0
-140 -112 0
-112 -140 0
-113 -141 0
-141 -113 0
-149 -153 0
-153 -149 0
-150 -154 0
-154 -150 0
-155 -151 0
-151 -155 0
-146 -158 0
-158 -146 0
-159 -147 0
-160 -148 0
-180 -184 0
-181 -185 0
-182 -186 0
-177 -187 0
-187 -177 0
-178 -188 0
-188 -178 0
-189 -179 0
-203 -205 0
-205 -203 0
-206 -202 0
-202 -206 0
-220 -216 0
-217 -221 0
-221 -217 0
-222 -218 0
-223 -213 0
-213 -223 0
-214 -224 0
-215 -225 0
