projected/problems_b25_r0_d7_m100_s666/b25_d7_r0_s666_089.smt2
(set-logic QF_UF)
(declare-fun A0 () Bool)
(declare-fun A1 () Bool)
(declare-fun A2 () Bool)
(declare-fun A3 () Bool)
(declare-fun A4 () Bool)
(declare-fun A5 () Bool)
(declare-fun A6 () Bool)
(declare-fun A7 () Bool)
(declare-fun A8 () Bool)
(declare-fun A9 () Bool)
(declare-fun A10 () Bool)
(declare-fun A11 () Bool)
(declare-fun A12 () Bool)
(declare-fun A13 () Bool)
(declare-fun A14 () Bool)
(declare-fun A15 () Bool)
(declare-fun A16 () Bool)
(declare-fun A17 () Bool)
(declare-fun A18 () Bool)
(declare-fun A19 () Bool)
(declare-fun A20 () Bool)
(declare-fun A21 () Bool)
(declare-fun A22 () Bool)
(declare-fun A23 () Bool)
(declare-fun A24 () Bool)
(assert (let ((.def_0 (or A11 A3))) (let ((.def_1 (not A11))) (let ((.def_2 (or .def_1 A21))) (let ((.def_3 (not .def_2))) (let ((.def_4 (and .def_3 .def_0))) (let ((.def_5 (not A1))) (let ((.def_6 (or .def_5 A20))) (let ((.def_7 (not A4))) (let ((.def_8 (and .def_7 A2))) (let ((.def_9 (= .def_8 .def_6))) (let ((.def_10 (and .def_9 .def_4))) (let ((.def_11 (not A16))) (let ((.def_12 (or .def_11 A11))) (let ((.def_13 (not .def_12))) (let ((.def_14 (and A19 A20))) (let ((.def_15 (not .def_14))) (let ((.def_16 (and .def_15 .def_13))) (let ((.def_17 (and A20 .def_1))) (let ((.def_18 (not .def_17))) (let ((.def_19 (not A3))) (let ((.def_20 (= A7 .def_19))) (let ((.def_21 (and .def_20 .def_18))) (let ((.def_22 (or .def_21 .def_16))) (let ((.def_23 (and .def_22 .def_10))) (let ((.def_24 (not A8))) (let ((.def_25 (or .def_24 A10))) (let ((.def_26 (not .def_25))) (let ((.def_27 (not A7))) (let ((.def_28 (or A21 .def_27))) (let ((.def_29 (= .def_28 .def_26))) (let ((.def_30 (and .def_27 A13))) (let ((.def_31 (or A2 A11))) (let ((.def_32 (or .def_31 .def_30))) (let ((.def_33 (and .def_32 .def_29))) (let ((.def_34 (= A23 .def_7))) (let ((.def_35 (not A12))) (let ((.def_36 (or A21 .def_35))) (let ((.def_37 (or .def_36 .def_34))) (let ((.def_38 (and A18 A4))) (let ((.def_39 (not .def_38))) (let ((.def_40 (or A0 A5))) (let ((.def_41 (or .def_40 .def_39))) (let ((.def_42 (or .def_41 .def_37))) (let ((.def_43 (not .def_42))) (let ((.def_44 (and .def_43 .def_33))) (let ((.def_45 (not .def_44))) (let ((.def_46 (= .def_45 .def_23))) (let ((.def_47 (not A19))) (let ((.def_48 (or .def_47 A19))) (let ((.def_49 (not .def_48))) (let ((.def_50 (= A6 A21))) (let ((.def_51 (not .def_50))) (let ((.def_52 (or .def_51 .def_49))) (let ((.def_53 (not .def_52))) (let ((.def_54 (not A23))) (let ((.def_55 (not A10))) (let ((.def_56 (and .def_55 .def_54))) (let ((.def_57 (not A21))) (let ((.def_58 (not A13))) (let ((.def_59 (and .def_58 .def_57))) (let ((.def_60 (and .def_59 .def_56))) (let ((.def_61 (not .def_60))) (let ((.def_62 (or .def_61 .def_53))) (let ((.def_63 (not .def_62))) (let ((.def_64 (not A14))) (let ((.def_65 (or .def_58 .def_64))) (let ((.def_66 (not .def_65))) (let ((.def_67 (not A0))) (let ((.def_68 (= .def_67 A19))) (let ((.def_69 (not .def_68))) (let ((.def_70 (and .def_69 .def_66))) (let ((.def_71 (not .def_70))) (let ((.def_72 (and A3 .def_58))) (let ((.def_73 (not .def_72))) (let ((.def_74 (or A9 .def_55))) (let ((.def_75 (or .def_74 .def_73))) (let ((.def_76 (not .def_75))) (let ((.def_77 (and .def_76 .def_71))) (let ((.def_78 (not .def_77))) (let ((.def_79 (= .def_78 .def_63))) (let ((.def_80 (not A22))) (let ((.def_81 (or .def_11 .def_80))) (let ((.def_82 (not .def_81))) (let ((.def_83 (or .def_57 A0))) (let ((.def_84 (not .def_83))) (let ((.def_85 (and .def_84 .def_82))) (let ((.def_86 (not .def_85))) (let ((.def_87 (= A22 A12))) (let ((.def_88 (not .def_87))) (let ((.def_89 (or A17 A7))) (let ((.def_90 (and .def_89 .def_88))) (let ((.def_91 (= .def_90 .def_86))) (let ((.def_92 (not .def_91))) (let ((.def_93 (= A16 .def_27))) (let ((.def_94 (not .def_93))) (let ((.def_95 (not A9))) (let ((.def_96 (or .def_95 A23))) (let ((.def_97 (and .def_96 .def_94))) (let ((.def_98 (or A18 A20))) (let ((.def_99 (= A12 A11))) (let ((.def_100 (not .def_99))) (let ((.def_101 (and .def_100 .def_98))) (let ((.def_102 (not .def_101))) (let ((.def_103 (or .def_102 .def_97))) (let ((.def_104 (or .def_103 .def_92))) (let ((.def_105 (not .def_104))) (let ((.def_106 (and .def_105 .def_79))) (let ((.def_107 (and .def_106 .def_46))) (let ((.def_108 (or A2 .def_24))) (let ((.def_109 (not A15))) (let ((.def_110 (and .def_109 A22))) (let ((.def_111 (and .def_110 .def_108))) (let ((.def_112 (or A5 A19))) (let ((.def_113 (not .def_112))) (let ((.def_114 (not A20))) (let ((.def_115 (and .def_114 A20))) (let ((.def_116 (not .def_115))) (let ((.def_117 (and .def_116 .def_113))) (let ((.def_118 (= .def_117 .def_111))) (let ((.def_119 (not .def_118))) (let ((.def_120 (or A5 A7))) (let ((.def_121 (or .def_19 A8))) (let ((.def_122 (or .def_121 .def_120))) (let ((.def_123 (not .def_122))) (let ((.def_124 (= .def_11 .def_58))) (let ((.def_125 (not .def_124))) (let ((.def_126 (or A8 A5))) (let ((.def_127 (not .def_126))) (let ((.def_128 (or .def_127 .def_125))) (let ((.def_129 (not .def_128))) (let ((.def_130 (and .def_129 .def_123))) (let ((.def_131 (not .def_130))) (let ((.def_132 (or .def_131 .def_119))) (let ((.def_133 (or A23 A8))) (let ((.def_134 (not .def_133))) (let ((.def_135 (and .def_55 .def_55))) (let ((.def_136 (not .def_135))) (let ((.def_137 (= .def_136 .def_134))) (let ((.def_138 (not .def_137))) (let ((.def_139 (or .def_95 A1))) (let ((.def_140 (not .def_139))) (let ((.def_141 (not A2))) (let ((.def_142 (and A15 .def_141))) (let ((.def_143 (or .def_142 .def_140))) (let ((.def_144 (or .def_143 .def_138))) (let ((.def_145 (and .def_141 .def_141))) (let ((.def_146 (and A24 A10))) (let ((.def_147 (not .def_146))) (let ((.def_148 (or .def_147 .def_145))) (let ((.def_149 (or A7 .def_5))) (let ((.def_150 (not .def_149))) (let ((.def_151 (not A18))) (let ((.def_152 (and A21 .def_151))) (let ((.def_153 (and .def_152 .def_150))) (let ((.def_154 (= .def_153 .def_148))) (let ((.def_155 (not .def_154))) (let ((.def_156 (and .def_155 .def_144))) (let ((.def_157 (not .def_156))) (let ((.def_158 (or .def_157 .def_132))) (let ((.def_159 (or A6 A0))) (let ((.def_160 (and A7 .def_114))) (let ((.def_161 (not .def_160))) (let ((.def_162 (and .def_161 .def_159))) (let ((.def_163 (not .def_162))) (let ((.def_164 (or A13 A12))) (let ((.def_165 (not .def_164))) (let ((.def_166 (or A7 A13))) (let ((.def_167 (and .def_166 .def_165))) (let ((.def_168 (and .def_167 .def_163))) (let ((.def_169 (not .def_168))) (let ((.def_170 (or A20 .def_141))) (let ((.def_171 (not .def_170))) (let ((.def_172 (and .def_7 .def_47))) (let ((.def_173 (not .def_172))) (let ((.def_174 (or .def_173 .def_171))) (let ((.def_175 (not .def_174))) (let ((.def_176 (not A17))) (let ((.def_177 (or .def_1 .def_176))) (let ((.def_178 (and A1 A10))) (let ((.def_179 (or .def_178 .def_177))) (let ((.def_180 (not .def_179))) (let ((.def_181 (and .def_180 .def_175))) (let ((.def_182 (not .def_181))) (let ((.def_183 (and .def_182 .def_169))) (let ((.def_184 (and A3 A11))) (let ((.def_185 (not .def_184))) (let ((.def_186 (or A5 .def_114))) (let ((.def_187 (or .def_186 .def_185))) (let ((.def_188 (and .def_7 A13))) (let ((.def_189 (not .def_188))) (let ((.def_190 (and A1 A6))) (let ((.def_191 (not .def_190))) (let ((.def_192 (or .def_191 .def_189))) (let ((.def_193 (or .def_192 .def_187))) (let ((.def_194 (not .def_193))) (let ((.def_195 (= .def_1 .def_27))) (let ((.def_196 (not .def_195))) (let ((.def_197 (or A7 A21))) (let ((.def_198 (or .def_197 .def_196))) (let ((.def_199 (and A19 A9))) (let ((.def_200 (or A18 A19))) (let ((.def_201 (not .def_200))) (let ((.def_202 (and .def_201 .def_199))) (let ((.def_203 (not .def_202))) (let ((.def_204 (and .def_203 .def_198))) (let ((.def_205 (and .def_204 .def_194))) (let ((.def_206 (and .def_205 .def_183))) (let ((.def_207 (not .def_206))) (let ((.def_208 (or .def_207 .def_158))) (let ((.def_209 (not .def_208))) (let ((.def_210 (or .def_209 .def_107))) (let ((.def_211 (not .def_210))) .def_211)))))))))))))))))))))))))))))))))))))))))))))))))))))))))))))))))))))))))))))))))))))))))))))))))))))))))))))))))))))))))))))))))))))))))))))))))))))))))))))))))))))))))))))))))))))))))))))))))))))))))))))))))))))
(check-sat)
